Academic license - for non-commercial use only
Gurobi Optimizer version 9.0.3 build v9.0.3rc0 (mac64)
Optimize a model with 156424 rows, 151200 columns and 877950 nonzeros
Model fingerprint: 0x7182f371
Variable types: 0 continuous, 151200 integer (151200 binary)
Coefficient statistics:
  Matrix range     [1e+00, 1e+00]
  Objective range  [1e+01, 3e+04]
  Bounds range     [1e+00, 1e+00]
  RHS range        [1e+00, 2e+02]
Presolve added 0 rows and 2450 columns
Presolve removed 50 rows and 0 columns
Presolve time: 2.47s
Presolved: 156374 rows, 153650 columns, 635350 nonzeros
Variable types: 0 continuous, 153650 integer (153650 binary)
Found heuristic solution: objective 609286.00000

Concurrent LP optimizer: dual simplex and barrier
Showing barrier log only...

Root barrier log...

Ordering time: 0.43s

Barrier statistics:
 Dense cols : 600
 AA' NZ     : 4.894e+05
 Factor NZ  : 2.609e+06 (roughly 150 MBytes of memory)
 Factor Ops : 1.141e+09 (less than 1 second per iteration)
 Threads    : 3

                  Objective                Residual
Iter       Primal          Dual         Primal    Dual     Compl     Time
   0   1.31974003e+08 -1.72993630e+08  3.65e+02 2.93e+01  9.72e+03     5s
   1   1.43005806e+06 -2.05346854e+08  2.25e+00 2.05e+02  5.14e+02     5s
   2   8.42774834e+05 -1.07299120e+08  5.54e-01 1.17e+02  2.50e+02     5s
   3   7.39404188e+05 -5.35688597e+07  2.33e-01 6.02e+01  1.24e+02     5s
   4   6.69818698e+05 -3.60405627e+06  2.62e-02 3.36e+01  9.53e+00     6s
   5   6.51392954e+05 -2.28863648e+05  1.15e-02 5.70e+00  1.95e+00     6s
   6   6.33942569e+05  9.73914638e+04  8.51e-03 3.27e+00  1.18e+00     6s
   7   6.23858929e+05  2.53258350e+05  7.25e-03 1.93e+00  8.16e-01     6s
   8   6.13275482e+05  3.48793505e+05  5.82e-03 1.25e+00  5.81e-01     6s
   9   6.05586630e+05  4.29172712e+05  5.06e-03 7.34e-01  3.86e-01     6s
  10   5.97852962e+05  4.63403023e+05  4.32e-03 5.05e-01  2.94e-01     7s
  11   5.83784225e+05  4.89045285e+05  3.04e-03 3.25e-01  2.07e-01     7s
  12   5.77610389e+05  5.02507617e+05  2.54e-03 2.44e-01  1.64e-01     7s
  13   5.71652091e+05  5.14407159e+05  2.09e-03 1.69e-01  1.25e-01     8s
  14   5.67022082e+05  5.23827634e+05  1.75e-03 1.11e-01  9.37e-02     8s
  15   5.60002289e+05  5.30235587e+05  1.23e-03 7.60e-02  6.46e-02     8s
  16   5.56691470e+05  5.33890648e+05  1.00e-03 5.26e-02  4.94e-02     8s
  17   5.53683174e+05  5.34847300e+05  7.89e-04 4.65e-02  4.08e-02     8s
  18   5.51714342e+05  5.36929564e+05  6.47e-04 3.80e-02  3.20e-02     9s
  19   5.50831325e+05  5.37723725e+05  5.83e-04 3.22e-02  2.84e-02     9s
  20   5.49083187e+05  5.38548020e+05  4.64e-04 2.64e-02  2.28e-02     9s
  21   5.47885772e+05  5.38972268e+05  3.84e-04 2.36e-02  1.93e-02     9s
  22   5.47388834e+05  5.39329234e+05  3.49e-04 2.11e-02  1.75e-02     9s
  23   5.46623928e+05  5.39804233e+05  2.96e-04 1.83e-02  1.48e-02    10s
  24   5.46367348e+05  5.40143085e+05  2.78e-04 1.60e-02  1.35e-02    10s
  25   5.45868197e+05  5.40292534e+05  2.43e-04 1.49e-02  1.21e-02    10s
  26   5.45558915e+05  5.40489895e+05  2.21e-04 1.37e-02  1.10e-02    10s
  27   5.45169763e+05  5.40738373e+05  1.94e-04 1.19e-02  9.60e-03    11s
  28   5.44869278e+05  5.40850737e+05  1.73e-04 1.12e-02  8.71e-03    11s
  29   5.44618214e+05  5.40996374e+05  1.55e-04 1.02e-02  7.85e-03    11s
  30   5.44491094e+05  5.41121858e+05  1.46e-04 9.25e-03  7.30e-03    11s
  31   5.44270173e+05  5.41260456e+05  1.31e-04 8.26e-03  6.52e-03    11s
  32   5.44106965e+05  5.41348915e+05  1.20e-04 7.64e-03  5.98e-03    12s
  33   5.43976842e+05  5.41410380e+05  1.10e-04 7.18e-03  5.56e-03    12s
  34   5.43725625e+05  5.41483986e+05  9.25e-05 6.65e-03  4.86e-03    12s
  35   5.43638289e+05  5.41522687e+05  8.64e-05 6.36e-03  4.59e-03    12s
  36   5.43561140e+05  5.41709211e+05  8.11e-05 4.82e-03  4.01e-03    12s
  37   5.43373359e+05  5.41775562e+05  6.78e-05 4.35e-03  3.46e-03    13s
  38   5.43224781e+05  5.41808408e+05  5.73e-05 4.13e-03  3.07e-03    13s
  39   5.43198397e+05  5.41854140e+05  5.57e-05 3.81e-03  2.92e-03    13s
  40   5.43102501e+05  5.41897667e+05  4.91e-05 3.50e-03  2.61e-03    13s
  41   5.43076579e+05  5.41911388e+05  4.73e-05 3.40e-03  2.53e-03    14s
  42   5.42993811e+05  5.42023606e+05  4.15e-05 2.58e-03  2.10e-03    14s
  43   5.42896318e+05  5.42071819e+05  3.48e-05 2.25e-03  1.79e-03    14s
  44   5.42835247e+05  5.42142483e+05  3.04e-05 1.78e-03  1.50e-03    14s
  45   5.42789106e+05  5.42165550e+05  2.72e-05 1.60e-03  1.35e-03    14s
  46   5.42742842e+05  5.42185402e+05  2.41e-05 1.43e-03  1.21e-03    15s
  47   5.42696605e+05  5.42207766e+05  2.09e-05 1.24e-03  1.06e-03    15s
  48   5.42648107e+05  5.42221564e+05  1.76e-05 1.14e-03  9.25e-04    15s
  49   5.42628334e+05  5.42238117e+05  1.62e-05 1.01e-03  8.46e-04    15s
  50   5.42585038e+05  5.42256731e+05  1.32e-05 9.00e-04  7.12e-04    15s
  51   5.42580534e+05  5.42277860e+05  1.29e-05 7.83e-04  6.56e-04    16s
  52   5.42548032e+05  5.42297843e+05  1.07e-05 6.46e-04  5.42e-04    16s
  53   5.42519708e+05  5.42314304e+05  8.76e-06 5.27e-04  4.45e-04    16s
  54   5.42488682e+05  5.42324477e+05  6.72e-06 4.48e-04  3.56e-04    16s
  55   5.42473789e+05  5.42341040e+05  5.71e-06 3.47e-04  2.88e-04    16s
  56   5.42460735e+05  5.42352120e+05  4.82e-06 2.67e-04  2.35e-04    17s
  57   5.42449547e+05  5.42353581e+05  4.08e-06 2.56e-04  2.08e-04    17s
  58   5.42442959e+05  5.42360869e+05  3.63e-06 2.08e-04  1.78e-04    17s
  59   5.42435956e+05  5.42363526e+05  3.17e-06 1.88e-04  1.57e-04    17s
  60   5.42431150e+05  5.42365647e+05  2.85e-06 1.71e-04  1.42e-04    17s
  61   5.42430176e+05  5.42366598e+05  2.78e-06 1.64e-04  1.38e-04    18s
  62   5.42425492e+05  5.42370514e+05  2.47e-06 1.32e-04  1.19e-04    18s
  63   5.42419638e+05  5.42372635e+05  2.08e-06 1.19e-04  1.02e-04    18s
  64   5.42417075e+05  5.42374814e+05  1.91e-06 1.03e-04  9.14e-05    18s
  65   5.42415871e+05  5.42375251e+05  1.83e-06 9.95e-05  8.79e-05    18s
  66   5.42411018e+05  5.42378155e+05  1.50e-06 7.57e-05  7.11e-05    19s
  67   5.42404447e+05  5.42379187e+05  1.07e-06 6.77e-05  5.47e-05    19s
  68   5.42398511e+05  5.42382883e+05  6.72e-07 3.78e-05  3.38e-05    19s
  69   5.42393359e+05  5.42387500e+05  3.36e-07 3.30e-06  1.26e-05    19s
  70   5.42388050e+05  5.42387962e+05  2.89e-09 3.92e-06  1.91e-07    19s
  71   5.42388000e+05  5.42388000e+05  2.41e-11 4.78e-07  1.91e-10    20s

Barrier solved model in 71 iterations and 19.52 seconds
Optimal objective 5.42388000e+05


Root crossover log...

   84631 DPushes remaining with DInf 0.0000000e+00                20s
       0 DPushes remaining with DInf 0.0000000e+00                20s

     517 PPushes remaining with PInf 0.0000000e+00                20s
       0 PPushes remaining with PInf 0.0000000e+00                20s

  Push phase complete: Pinf 0.0000000e+00, Dinf 0.0000000e+00     20s


Root simplex log...

Iteration    Objective       Primal Inf.    Dual Inf.      Time
    9717    5.4238800e+05   0.000000e+00   0.000000e+00     20s

Solved with barrier

Root relaxation: objective 5.423880e+05, 9717 iterations, 16.36 seconds
Total elapsed time = 20.43s

    Nodes    |    Current Node    |     Objective Bounds      |     Work
 Expl Unexpl |  Obj  Depth IntInf | Incumbent    BestBd   Gap | It/Node Time

     0     0 542388.000    0 3419 609286.000 542388.000  11.0%     -   21s
H    0     0                    542566.00000 542388.000  0.03%     -   35s
     0     0 542393.533    0 4006 542566.000 542393.533  0.03%     -   40s
     0     0 542393.533    0 2941 542566.000 542393.533  0.03%     -   45s
     0     0 542398.516    0 3491 542566.000 542398.516  0.03%     -   47s
     0     0 542407.876    0 3673 542566.000 542407.876  0.03%     -   49s
     0     0 542408.017    0 3680 542566.000 542408.017  0.03%     -   50s
     0     0 542408.026    0 3684 542566.000 542408.026  0.03%     -   50s
     0     0 542493.000    0 2941 542566.000 542493.000  0.01%     -   51s
     0     0 542493.000    0 2949 542566.000 542493.000  0.01%     -   52s

Cutting planes:
  Gomory: 4
  Clique: 1
  Zero half: 125
  Mod-K: 1

Explored 1 nodes (18905 simplex iterations) in 53.11 seconds
Thread count was 8 (of 8 available processors)

Solution count 3: 542566 542566 609286 

Optimal solution found (tolerance 1.00e-04)
Best objective 5.425660000000e+05, best bound 5.425235235602e+05, gap 0.0078%

User-callback calls 7343, time in user-callback 0.06 sec
Solution written to /Users/mdeboute/Desktop/Etudes/Master/M2/S9/GOPP/Projet/multi-period-flp/solution/instMulti_I50_J250_T12_1_result.txt
